13
2-Butanone
C   1.90450192  0.05979893 -0.02086898
C   0.47967159  0.05144391 -0.54428550
C  -0.55004464 -0.05502930  0.56542857
O  -0.24432669 -0.12593396  1.75476239
C  -1.99303960 -0.07003118  0.13225344
H   2.12507899 -0.85819849  0.53387530
H   2.07096702  0.90673354  0.65300483
H   2.61470162  0.13752368 -0.84978638
H   0.28846246  0.97527824 -1.10016344
H   0.34287047 -0.79932132 -1.21994450
H  -2.22631340  0.85733384 -0.39659065
H  -2.17150079 -0.93048135 -0.51726617
H  -2.64102896 -0.14911655  1.00958110
