18
Ethylbenzene
C  -2.48652002  0.22384030  0.45322141
C  -1.58166419  0.10915906 -0.76395882
C  -0.12981071 -0.00089429 -0.37475094
C   0.45007870 -1.25466225 -0.13964030
C   1.79058196 -1.35481570  0.23641652
C   2.56187919 -0.20371225  0.38536351
C   1.99310870  1.04851013  0.16050700
C   0.65276075  1.15051191 -0.21560739
H  -2.39111074 -0.65251646  1.10327597
H  -2.24252790  1.11090208  1.04758283
H  -3.53268452  0.30212563  0.14094020
H  -1.87110830 -0.76493399 -1.35998280
H  -1.72404787  0.98026230 -1.41508607
H  -0.14073297 -2.16133497 -0.24767920
H   2.23237643 -2.33155927  0.41463376
H   3.60522153 -0.28237064  0.67863072
H   2.59291653  1.94686644  0.27949725
H   0.22128341  2.13462197 -0.38336366
