16
2-Methyltetrahydrofuran
C   1.88149416 -0.27789991  0.21687517
C   0.66177724 -0.19491377 -0.69057889
C  -0.19712260  1.03111514 -0.41901466
C  -1.20189597  0.51880838  0.58255132
C  -1.41563837 -0.90116075  0.10982178
O  -0.16725418 -1.34349964 -0.43951022
H   2.54494446  0.57915356  0.06729668
H   1.59314318 -0.31960242  1.27270112
H   2.44431823 -1.19488872  0.01131591
H   0.98733091 -0.22097813 -1.73594045
H   0.36688154  1.89976339 -0.06766960
H  -0.72080315  1.32098864 -1.33839906
H  -2.12621381  1.10149316  0.61404077
H  -0.76219804  0.51915628  1.58657809
H  -2.16630431 -0.94502529 -0.68663454
H  -1.72245928 -1.57250992  0.91656658
