15
Diethyl ether
C   2.32490187 -0.79106519  0.33525536
C   1.09844305 -0.55457280 -0.52335133
O   0.02469391 -0.15473954  0.32474568
C  -1.16977302  0.08724464 -0.41468949
C  -2.25722327  0.50550393  0.55476701
H   3.17626203 -1.10086262 -0.27721183
H   2.12782214 -1.56522341  1.08421816
H   2.59467343  0.11899819  0.88125417
H   1.30362531  0.23285547 -1.25685488
H   0.82984229 -1.47638557 -1.05087906
H  -1.47072826 -0.82541427 -0.94066434
H  -0.99694447  0.88382526 -1.14664555
H  -1.96176432  1.40829549  1.09954052
H  -2.42862143 -0.27592467  1.30249600
H  -3.19520928  0.70203328  0.02801959
