14
1,4-Dioxane
C  -1.00244254  0.91161391 -0.22625125
C  -1.22850777 -0.46001150  0.40778140
O  -0.29762834 -1.44095300 -0.07294393
C   0.95457431 -0.86623424 -0.47491934
C   1.27637205  0.41463020  0.29338942
O   0.29762046  1.44094998  0.07295718
H  -1.74570356  1.63084627  0.13046417
H  -1.08825419  0.84878538 -1.31685279
H  -2.23759167 -0.82451954  0.19364573
H  -1.11284199 -0.40322651  1.49595484
H   1.73294149 -1.61874453 -0.31732903
H   0.89256087 -0.66324332 -1.54994427
H   2.25034405  0.81242719 -0.00679225
H   1.30855682  0.21767970  1.37084012
