14
Ethyl acetate
C  -2.26609130  0.09736415  0.46721317
C  -1.09674503 -0.34541735 -0.39049081
O   0.10889936  0.14312752  0.20972756
C   1.24177595 -0.18833266 -0.46805694
O   1.28724077 -0.84164709 -1.50061354
C   2.44119591  0.36653830  0.23721660
H  -2.29619022  1.18929238  0.54396513
H  -2.16551732 -0.29079019  1.48619532
H  -3.21290157 -0.25352999  0.04732656
H  -1.06801141 -1.43969651 -0.44021882
H  -1.20111182  0.06789337 -1.39995961
H   2.50807699 -0.05565297  1.24302158
H   2.37456186  1.45651891  0.28038938
H   3.34481783  0.09433212 -0.31571559
