15
Toluene
C   2.20933670 -0.18838389 -0.13177901
C   0.71915092 -0.06245479 -0.01806964
C   0.11794353  1.19977724  0.06185040
C  -1.27104364  1.31795867  0.13594379
C  -2.07069656  0.17671132  0.12024652
C  -1.48232263 -1.08308955  0.02614680
C  -0.09344934 -1.20256525 -0.04800572
H   2.71184142  0.62916356  0.39578273
H   2.50741322 -0.16649141 -1.18448110
H   2.55745574 -1.12534685  0.31558317
H   0.72892440  2.09946306  0.06769897
H  -1.72892729  2.30123172  0.20302438
H  -3.15187019  0.26925140  0.17704421
H  -2.10507927 -1.97348894  0.00754662
H   0.35132299 -2.19173631 -0.12853212
