15
1-Butanol
C  -2.08957235 -0.64302286  0.23342934
C  -0.58401913 -0.67908616  0.44472502
C   0.14690641  0.17443148 -0.59417219
C   1.65989427  0.12408949 -0.41999391
O   2.02292484  0.69053104  0.83082756
H  -2.59257315 -1.25971129  0.98484156
H  -2.35636232 -1.02824220 -0.75589487
H  -2.47340689  0.37850978  0.31986691
H  -0.35760244 -0.32143380  1.45563053
H  -0.23750549 -1.71723151  0.38249417
H  -0.10907692 -0.17195373 -1.60215149
H  -0.19372958  1.21298910 -0.50254368
H   2.14714518  0.70047911 -1.21274459
H   2.02512046 -0.90712249 -0.46026182
H   2.99185711  0.64134224  0.89594746
