16
N-Methyl-2-pyrrolidone
C   2.11289515  0.31472750 -0.18123769
N   0.69011338  0.21334481  0.04027821
C   0.07180483 -1.02491043  0.43442834
C  -1.37383161 -0.62812517  0.65515675
C  -1.60249743  0.47872672 -0.36782593
C  -0.22721942  1.07779842 -0.54477444
O   0.01895562  2.11098431 -1.14451751
H   2.64001810 -0.03588152  0.70974267
H   2.39158006  1.35125705 -0.38955769
H   2.38069975 -0.30534498 -1.04138180
H   0.54083441 -1.42014577  1.33958574
H   0.17130021 -1.74414950 -0.38564766
H  -1.49867300 -0.22121222  1.66651802
H  -2.06811916 -1.46519485  0.54110137
H  -1.93589651  0.07231024 -1.32754523
H  -2.31196441  1.22581539 -0.00432313
