20
n-Hexane
C   2.97889799 -0.50074975 -0.04178712
C   1.59127316  0.06369489 -0.30636422
C   0.63959876 -0.23073028  0.85379283
C  -0.73984859  0.41314672  0.68791022
C  -1.53988835 -0.15718763 -0.48383635
C  -2.94125435  0.43224732 -0.53713779
H   3.41720788 -0.05946987  0.85904164
H   3.64332136 -0.28308863 -0.88388484
H   2.94173689 -1.58683765  0.09008048
H   1.66738568  1.14612481 -0.46094498
H   1.20755575 -0.37289853 -1.23449437
H   0.52724935 -1.31502366  0.97528654
H   1.08248834  0.14625570  1.78415887
H  -0.62756503  1.49755795  0.56741167
H  -1.30358625  0.25605232  1.61601163
H  -1.61197697 -1.24692899 -0.39104858
H  -1.03421906  0.05750548 -1.43119236
H  -3.49764540  0.20582835  0.37801294
H  -2.90483773  1.51967941 -0.65765368
H  -3.49589343  0.01482204 -1.38336252
