23
n-Heptane
C   3.32982379 -0.05011254 -0.15594332
C   2.35156126 -0.87935669  0.66170918
C   0.89806064 -0.74721362  0.19868048
C   0.31577812  0.65046425  0.42583097
C  -1.13653113  0.78700265 -0.04347076
C  -2.12441705 -0.03964025  0.78071670
C  -3.56008846  0.22412751  0.35221708
H   3.16292380  1.02182123 -0.01687177
H   3.24403772 -0.27936100 -1.22275638
H   4.35677960 -0.26718435  0.15530694
H   2.64402785 -1.93358267  0.58585445
H   2.43339947 -0.60358421  1.71948592
H   0.30632685 -1.48558630  0.75108575
H   0.82506087 -1.01157968 -0.86314403
H   0.38529082  0.91369387  1.48815569
H   0.91136763  1.38844241 -0.12326038
H  -1.20954526  0.50682249 -1.10140395
H  -1.41694079  1.84582614  0.02196010
H  -1.91712110 -1.10867039  0.66599209
H  -2.01705396  0.20225511  1.84433009
H  -4.25075180 -0.37861001  0.95026379
H  -3.82357071  1.27778350  0.48905202
H  -3.70841817 -0.03375745 -0.70127862
