13
Tetrahydrofuran
C   0.74202528 -0.66647895 -0.35950083
C  -0.67460255 -0.80656751  0.13563554
C  -1.18979732  0.61080178  0.01095078
O  -0.06768797  1.47884086  0.22474607
C   1.13024597  0.69027104  0.18677902
H   1.40680182 -1.46762784 -0.02644153
H   0.75111190 -0.64494347 -1.45570291
H  -0.67069945 -1.11190386  1.18870714
H  -1.26964492 -1.52895858 -0.42896293
H  -1.97606794  0.83819018  0.73617778
H  -1.57523682  0.80538229 -0.99559186
H   1.51039472  0.61128603  1.21088910
H   1.88315727  1.19170803 -0.42768537
