18
Cyclohexane
C  -1.32260933 -0.52202910  0.26164234
C  -1.11192197  0.83216758 -0.40174584
C   0.18727117  1.49657256  0.05873820
C   1.27854550  0.49945005  0.45402425
C   1.15598503 -0.80958974 -0.31390553
C  -0.18726964 -1.49657262 -0.05875131
H  -2.27879776 -0.95535448 -0.05276153
H  -1.38576339 -0.38305527  1.34838016
H  -1.95866047  1.49517112 -0.19108896
H  -1.08471354  0.69777294 -1.49055150
H   0.55231646  2.14735767 -0.74513909
H  -0.01417435  2.15314775  0.91391459
H   2.26437541  0.94796435  0.28701433
H   1.20857464  0.29226282  1.52942154
H   1.97308165 -1.48778291 -0.04312270
H   1.26189650 -0.60697943 -1.38723290
H  -0.08961127 -2.20632513  0.77173718
H  -0.44852465 -2.09417816 -0.94057325
