20
Butyl acetate
C  -2.78281569 -0.97191809  0.00177096
C  -1.40913358 -0.60218216  0.53918169
C  -0.97253300  0.78132856  0.05255601
C   0.38734799  1.18973203  0.61599405
O   1.41056340  0.25923940  0.23109024
C   1.98005462  0.47584928 -0.98589090
O   1.69358131  1.37871590 -1.75875363
C   3.02121116 -0.56749066 -1.25357824
H  -2.78280188 -0.99409818 -1.09269087
H  -3.07636816 -1.96298514  0.36168374
H  -3.53971091 -0.25301949  0.33133668
H  -1.43549917 -0.61936544  1.63490024
H  -0.68627221 -1.36140702  0.21958629
H  -1.71796851  1.52926793  0.34688957
H  -0.93096356  0.77345319 -1.04292761
H   0.65010032  2.20815040  0.30582688
H   0.35369625  1.19350592  1.71101919
H   3.47860357 -0.38111138 -2.22949071
H   3.80072675 -0.51834371 -0.48916807
H   2.55818128 -1.55732133 -1.26892310
