15
tert-Butanol
C   1.46802558 -0.15955164 -0.38990172
C  -0.03694655  0.04964047 -0.23656696
C  -0.71015796 -1.23055641  0.25615774
C  -0.32406889  1.21508832  0.70904826
O  -0.56020166  0.37101126 -1.52592224
H   1.67938069 -0.96366367 -1.10410562
H   1.94058490 -0.41101554  0.56519034
H   1.94855026  0.74137760 -0.78836946
H  -1.79554743 -1.09801091  0.33061352
H  -0.33087241 -1.53389561  1.23739674
H  -0.54688940 -2.05298237 -0.44960312
H   0.11562624  2.14366827  0.32754206
H   0.07362581  1.02835351  1.71188002
H  -1.40200190  1.39486534  0.79225238
H  -1.51910727  0.50567141 -1.43561194
