21
Diisopropyl ether
C  -2.26083710  0.47951620 -0.88315766
C  -1.10091035 -0.36336218 -0.36681214
C  -1.59111738 -1.35396961  0.68446257
O  -0.15396602  0.53454189  0.21806517
C   1.19123691  0.04976179  0.23887664
C   1.90560799  0.75377049  1.38627955
C   1.87535020  0.36716898 -1.08702992
H  -2.71803605  1.05956443 -0.07374140
H  -1.90414757  1.20245641 -1.62494134
H  -3.03105554 -0.14393938 -1.34736291
H  -0.65614323 -0.90191056 -1.21111540
H  -0.77064594 -1.97901821  1.05036107
H  -1.99774294 -0.82947710  1.55628475
H  -2.36550801 -2.01173082  0.27768708
H   1.21266299 -1.03022872  0.42289177
H   1.40248795  0.53921713  2.33546280
H   1.88238525  1.84164349  1.25729797
H   2.94831552  0.43119694  1.46454648
H   1.82215812  1.43909859 -1.30759050
H   2.92668909  0.06340654 -1.07250346
H   1.38321610 -0.14770632 -1.91796114
